(set-info :smt-lib-version 2.6)
(set-logic ALL)
(set-info :source |
Generated on: 2026-06-22
Generator: ppTransSmt github.com/CLEARSY/pptranspog
Application: Discharging a proof obligation generated by aTelierB from an anonymized B machine
Target solver: CVC5 (--mbqi --enum-inst)
Time limit: 1200.0
|)
(set-info :license "www.gnu.org/licenses/gpl-3.0.en.html")
(set-info :category "industrial")
(set-info :status unknown)

; Prelude
(declare-sort P 1)
(declare-fun mem0 (Int (P Int)) Bool)
(declare-fun mem1 (Real (P Real)) Bool)
(declare-sort C 2)

(declare-fun divB (Int Int) Int)
(assert (!
 (forall ((x Int) (y Int))
  (!
   (and
    (=> (and (<= 0 x) (< 0 y)) (= (divB x y) (div x y)))
    (=> (and (<= x 0) (< 0 y)) (= (divB x y) (- 0 (div (- 0 x) y))))
    (=> (and (<= 0 x) (< y 0)) (= (divB x y) (div x y)))
    (=> (and (<= x 0) (< y 0)) (= (divB x y) (div (- 0 x) (- 0 y))))
   )
   :pattern ((divB x y))
  )
 )
 :named |divB_axiom|))

(define-fun MinInt () Int (- 2147483648))
(define-fun MaxInt () Int 2147483647)
; Global declarations
(declare-fun g_s0_0 () Real)
(declare-fun g_s10_10 () Real)
(declare-fun g_s11_11 () Real)
(declare-fun g_s12_12 () Real)
(declare-fun g_s13_13 () Real)
(declare-fun g_s14_14 () Int)
(declare-fun g_s15_15 () Int)
(declare-fun g_s16_16 () Int)
(declare-fun g_s17_18 () Real)
(declare-fun g_s18_19 () Real)
(declare-fun g_s19_17 () Real)
(declare-fun g_s1_1 () Real)
(declare-fun g_s20$1_20 () Int)
(declare-fun g_s20_31 () Int)
(declare-fun g_s21$1_21 () Int)
(declare-fun g_s21_32 () Int)
(declare-fun g_s22$1_22 () Int)
(declare-fun g_s22_33 () Int)
(declare-fun g_s23$1_23 () Int)
(declare-fun g_s23_34 () Int)
(declare-fun g_s24$1_24 () Int)
(declare-fun g_s24_35 () Int)
(declare-fun g_s25$1_28 () Real)
(declare-fun g_s25_36 () Real)
(declare-fun g_s26$1_26 () Real)
(declare-fun g_s26_37 () Real)
(declare-fun g_s27$1_27 () Real)
(declare-fun g_s27_38 () Real)
(declare-fun g_s28$1_25 () Real)
(declare-fun g_s28_39 () Real)
(declare-fun g_s29$1_30 () Real)
(declare-fun g_s29_40 () Real)
(declare-fun g_s2_2 () Real)
(declare-fun g_s30$1_29 () Bool)
(declare-fun g_s30_41 () Bool)
(declare-fun g_s31$1_42 () Real)
(declare-fun g_s32$1_43 () Real)
(declare-fun g_s33$1_44 () Real)
(declare-fun g_s3_4 () Real)
(declare-fun g_s4_3 () Real)
(declare-fun g_s5_6 () Int)
(declare-fun g_s6_5 () (P Int))
(declare-fun g_s7_7 () Int)
(declare-fun g_s8_8 () Real)
(declare-fun g_s9_9 () Int)
; Defines
(define-fun |def_lprp_0| () Bool true)
(define-fun |def_lprp_1| () Bool true)
(define-fun |def_lprp_2| () Bool (< 0.0 g_s0_0))
(define-fun |def_lprp_3| () Bool (< 0.0 g_s1_1))
(define-fun |def_lprp_4| () Bool true)
(define-fun |def_lprp_5| () Bool (< 0.0 g_s2_2))
(define-fun |def_lprp_6| () Bool true)
(define-fun |def_lprp_7| () Bool true)
(define-fun |def_lprp_8| () Bool (<= 0.0 g_s4_3))
(define-fun |def_lprp_9| () Bool (< 0.0 g_s3_4))
(define-fun |def_lprp_10| () Bool (mem0 g_s5_6 g_s6_5))
(define-fun |def_lprp_11| () Bool (<= g_s5_6 g_s7_7))
(define-fun |def_lprp_12| () Bool (= g_s8_8 (* g_s2_2 (- (+ g_s0_0 (* (* g_s0_0 (to_real (- (- g_s7_7 g_s5_6) (* 2 g_s9_9)))) g_s3_4)) (* g_s4_3 (* (+ g_s10_10 g_s11_11) (to_real (* 2 g_s9_9))))))))
(define-fun |def_lprp_13| () Bool (= g_s12_12 (* g_s2_2 (+ (- (+ (- 0.0 g_s1_1) (/ 100.0 g_s2_2)) (* (* g_s1_1 (to_real (- (- g_s7_7 g_s5_6) (* 2 g_s9_9)))) g_s3_4)) (* g_s4_3 (* (+ g_s10_10 g_s13_13) (to_real (* 2 g_s9_9))))))))
(define-fun |def_lprp_14| () Bool (<= (* (* g_s0_0 (to_real (- (- g_s7_7 g_s5_6) (* 2 g_s9_9)))) g_s3_4) (/ 100.0 g_s2_2)))
(define-fun |def_lprp_15| () Bool (<= 0.0 (- (/ 100.0 g_s2_2) (* (* g_s1_1 (to_real (- (- g_s7_7 g_s5_6) (* 2 g_s9_9)))) g_s3_4))))
(define-fun |def_aprp_0| () Bool (forall ( (x_3 Int) ) (= (mem0 x_3 g_s6_5) (<= 0 x_3))))
(define-fun |def_aprp_1| () Bool (mem0 g_s9_9 g_s6_5))
(define-fun |def_aprp_2| () Bool (mem0 g_s14_14 g_s6_5))
(define-fun |def_aprp_3| () Bool (mem0 g_s15_15 g_s6_5))
(define-fun |def_aprp_4| () Bool (mem0 g_s7_7 g_s6_5))
(define-fun |def_aprp_5| () Bool (mem0 g_s16_16 g_s6_5))
(define-fun |def_aprp_6| () Bool (< 0 g_s9_9))
(define-fun |def_aprp_7| () Bool (<= 0 g_s14_14))
(define-fun |def_aprp_8| () Bool (<= 0 g_s15_15))
(define-fun |def_aprp_9| () Bool (< 0 g_s7_7))
(define-fun |def_aprp_10| () Bool true)
(define-fun |def_aprp_11| () Bool true)
(define-fun |def_aprp_12| () Bool true)
(define-fun |def_aprp_13| () Bool true)
(define-fun |def_aprp_14| () Bool true)
(define-fun |def_aprp_15| () Bool true)
(define-fun |def_aprp_16| () Bool true)
(define-fun |def_aprp_17| () Bool true)
(define-fun |def_aprp_18| () Bool (<= 0.0 g_s13_13))
(define-fun |def_aprp_19| () Bool (<= 0.0 g_s11_11))
(define-fun |def_aprp_20| () Bool (<= 0.0 g_s19_17))
(define-fun |def_aprp_21| () Bool (<= 0.0 (+ g_s10_10 g_s13_13)))
(define-fun |def_aprp_22| () Bool (<= 0.0 (+ g_s10_10 g_s11_11)))
(define-fun |def_aprp_23| () Bool (<= (- g_s10_10 g_s17_18) 0.0))
(define-fun |def_aprp_24| () Bool (<= 0.0 (- g_s18_19 g_s10_10)))
(define-fun |def_aprp_25| () Bool (<= (+ (+ g_s7_7 (* 2 g_s9_9)) g_s14_14) g_s16_16))
(define-fun |def_aprp_26| () Bool (<= (+ (+ g_s7_7 (* 2 g_s9_9)) g_s15_15) g_s16_16))
(define-fun |def_aprp_27| () Bool (< (+ (+ g_s19_17 (* (+ g_s10_10 g_s13_13) (to_real (+ (+ g_s7_7 (* 2 g_s9_9)) g_s14_14)))) (* (- g_s10_10 g_s17_18) (to_real (- g_s16_16 (+ (+ g_s7_7 (* 2 g_s9_9)) g_s14_14))))) 0.0))
(define-fun |def_aprp_28| () Bool (> (- (- (- 0.0 g_s19_17) (* (+ g_s10_10 g_s11_11) (to_real (+ (+ g_s7_7 (* 2 g_s9_9)) g_s15_15)))) (* (- g_s10_10 g_s18_19) (to_real (- g_s16_16 (+ (+ g_s7_7 (* 2 g_s9_9)) g_s15_15))))) 0.0))
(define-fun |def_abs_0| () Bool (mem0 g_s20$1_20 g_s6_5))
(define-fun |def_abs_1| () Bool (<= g_s20$1_20 g_s9_9))
(define-fun |def_abs_2| () Bool (mem0 g_s21$1_21 g_s6_5))
(define-fun |def_abs_3| () Bool (mem0 g_s22$1_22 g_s6_5))
(define-fun |def_abs_4| () Bool (mem0 g_s23$1_23 g_s6_5))
(define-fun |def_abs_5| () Bool (mem0 g_s24$1_24 g_s6_5))
(define-fun |def_abs_6| () Bool true)
(define-fun |def_abs_7| () Bool true)
(define-fun |def_abs_8| () Bool true)
(define-fun |def_abs_9| () Bool true)
(define-fun |def_abs_10| () Bool (< g_s28$1_25 g_s26$1_26))
(define-fun |def_abs_11| () Bool (< g_s26$1_26 g_s27$1_27))
(define-fun |def_abs_12| () Bool true)
(define-fun |def_abs_13| () Bool true)
(define-fun |def_abs_14| () Bool (=> (<= g_s25$1_28 g_s27$1_27) (= g_s21$1_21 0)))
(define-fun |def_abs_15| () Bool (<= g_s25$1_28 (+ (+ g_s27$1_27 g_s19_17) (* (+ g_s10_10 g_s13_13) (to_real g_s21$1_21)))))
(define-fun |def_abs_16| () Bool (=> (>= g_s21$1_21 (+ (+ g_s7_7 (* 2 g_s9_9)) g_s14_14)) (<= g_s25$1_28 (+ (+ (+ g_s27$1_27 g_s19_17) (* (+ g_s10_10 g_s13_13) (to_real (+ (+ g_s7_7 (* 2 g_s9_9)) g_s14_14)))) (* (- g_s10_10 g_s17_18) (to_real (- g_s21$1_21 (+ (+ g_s7_7 (* 2 g_s9_9)) g_s14_14))))))))
(define-fun |def_abs_17| () Bool (=> (<= g_s28$1_25 g_s25$1_28) (= g_s23$1_23 0)))
(define-fun |def_abs_18| () Bool (<= (- (- g_s28$1_25 g_s19_17) (* (+ g_s10_10 g_s11_11) (to_real g_s23$1_23))) g_s25$1_28))
(define-fun |def_abs_19| () Bool (=> (>= g_s23$1_23 (+ (+ g_s7_7 (* 2 g_s9_9)) g_s15_15)) (<= (- (- (- g_s28$1_25 g_s19_17) (* (+ g_s10_10 g_s11_11) (to_real (+ (+ g_s7_7 (* 2 g_s9_9)) g_s15_15)))) (* (- g_s10_10 g_s18_19) (to_real (- g_s23$1_23 (+ (+ g_s7_7 (* 2 g_s9_9)) g_s15_15))))) g_s25$1_28)))
(define-fun |def_abs_20| () Bool (=> (forall ((x_4 Int) ) (=> (or  (and (= g_s30$1_29 true) (= x_4 0)) (and (= g_s30$1_29 false) (= x_4 g_s9_9))) (>= g_s21$1_21 (+ (+ g_s7_7 g_s20$1_20) x_4)))) (and  (< (- g_s21$1_21 (+ g_s7_7 (* 2 g_s9_9))) g_s22$1_22) (> g_s29$1_30 g_s8_8))))
(define-fun |def_abs_21| () Bool (=> (forall ((x_5 Int) ) (=> (or  (and (= g_s30$1_29 true) (= x_5 0)) (and (= g_s30$1_29 false) (= x_5 g_s9_9))) (>= g_s23$1_23 (+ (+ g_s7_7 g_s20$1_20) x_5)))) (and  (< (- g_s23$1_23 (+ g_s7_7 (* 2 g_s9_9))) g_s24$1_24) (< g_s29$1_30 g_s12_12))))
(define-fun |def_abs_22| () Bool (<= g_s21$1_21 g_s16_16))
(define-fun |def_abs_23| () Bool (<= g_s23$1_23 g_s16_16))
(define-fun |def_inv_0| () Bool (= g_s20_31 g_s20$1_20))
(define-fun |def_inv_1| () Bool (= g_s21_32 g_s21$1_21))
(define-fun |def_inv_2| () Bool (= g_s22_33 g_s22$1_22))
(define-fun |def_inv_3| () Bool (= g_s23_34 g_s23$1_23))
(define-fun |def_inv_4| () Bool (= g_s24_35 g_s24$1_24))
(define-fun |def_inv_5| () Bool (= g_s25_36 g_s25$1_28))
(define-fun |def_inv_6| () Bool (= g_s26_37 g_s26$1_26))
(define-fun |def_inv_7| () Bool (= g_s27_38 g_s27$1_27))
(define-fun |def_inv_8| () Bool (= g_s28_39 g_s28$1_25))
(define-fun |def_inv_9| () Bool (= g_s29_40 g_s29$1_30))
(define-fun |def_inv_10| () Bool (= g_s30_41 g_s30$1_29))
(define-fun |def_inv_11| () Bool (= g_s27$1_27 (+ g_s26$1_26 g_s0_0)))
(define-fun |def_inv_12| () Bool (= g_s28$1_25 (- g_s26$1_26 g_s1_1)))
(define-fun |def_inv_13| () Bool true)
(define-fun |def_inv_14| () Bool (<= 0.0 g_s31$1_42))
(define-fun |def_inv_15| () Bool (<= g_s31$1_42 (/ 100.0 g_s2_2)))
(define-fun |def_inv_16| () Bool true)
(define-fun |def_inv_17| () Bool true)
(define-fun |def_inv_18| () Bool (forall ((x_6 Real) ) (=> (and  (or  (forall ((x_8 Int) ) (=> (or  (and (= g_s30$1_29 true) (= x_8 0)) (and (= g_s30$1_29 false) (= x_8 g_s9_9))) (= x_6 (* (* g_s0_0 (to_real (- g_s21$1_21 (+ (+ g_s5_6 g_s20$1_20) x_8)))) g_s3_4)))) (= x_6 (/ 100.0 g_s2_2))) (forall ( (x_7 Real) ) (=> (or  (forall ((x_9 Int) ) (=> (or  (and (= g_s30$1_29 true) (= x_9 0)) (and (= g_s30$1_29 false) (= x_9 g_s9_9))) (= x_7 (* (* g_s0_0 (to_real (- g_s21$1_21 (+ (+ g_s5_6 g_s20$1_20) x_9)))) g_s3_4)))) (= x_7 (/ 100.0 g_s2_2))) (<= x_6 x_7)))) (<= x_6 g_s31$1_42))))
(define-fun |def_inv_19| () Bool (forall ((x_10 Real) ) (=> (and  (or  (= x_10 0.0) (forall ((x_12 Int) ) (=> (or  (and (= g_s30$1_29 true) (= x_12 0)) (and (= g_s30$1_29 false) (= x_12 g_s9_9))) (= x_10 (- (/ 100.0 g_s2_2) (* (* g_s1_1 (to_real (- g_s23$1_23 (+ (+ g_s5_6 g_s20$1_20) x_12)))) g_s3_4)))))) (forall ( (x_11 Real) ) (=> (or  (= x_11 0.0) (forall ((x_13 Int) ) (=> (or  (and (= g_s30$1_29 true) (= x_13 0)) (and (= g_s30$1_29 false) (= x_13 g_s9_9))) (= x_11 (- (/ 100.0 g_s2_2) (* (* g_s1_1 (to_real (- g_s23$1_23 (+ (+ g_s5_6 g_s20$1_20) x_13)))) g_s3_4)))))) (>= x_10 x_11)))) (<= g_s31$1_42 x_10))))
(define-fun |def_inv_20| () Bool (=> (< g_s27$1_27 g_s25$1_28) (< g_s0_0 (- g_s32$1_43 g_s26$1_26))))
(define-fun |def_inv_21| () Bool (=> (< g_s25$1_28 g_s28$1_25) (< (- g_s32$1_43 g_s26$1_26) (- 0.0 g_s1_1))))
(define-fun |def_inv_22| () Bool (forall ((x_14 Int) ) (=> (or  (and (= g_s30$1_29 true) (= x_14 0)) (and (= g_s30$1_29 false) (= x_14 g_s9_9))) (<= (- 0.0 (* (+ g_s10_10 g_s11_11) (to_real (+ g_s20$1_20 x_14)))) (- g_s32$1_43 g_s33$1_44)))))
(define-fun |def_inv_23| () Bool (forall ((x_15 Int) ) (=> (or  (and (= g_s30$1_29 true) (= x_15 0)) (and (= g_s30$1_29 false) (= x_15 g_s9_9))) (<= (- g_s32$1_43 g_s33$1_44) (* (+ g_s10_10 g_s13_13) (to_real (+ g_s20$1_20 x_15)))))))
(define-fun |def_ass_0| () Bool (=> (<= g_s7_7 g_s21$1_21) (<= (* (* g_s0_0 (to_real (- (- g_s7_7 g_s5_6) (* 2 g_s9_9)))) g_s3_4) g_s31$1_42)))
(define-fun |def_ass_1| () Bool (=> (<= g_s7_7 g_s23$1_23) (<= g_s31$1_42 (- (/ 100.0 g_s2_2) (* (* g_s1_1 (to_real (- (- g_s7_7 g_s5_6) (* 2 g_s9_9)))) g_s3_4)))))
; PO group s51
(assert (! |def_aprp_0| :named |aprp0|))
(assert (! |def_aprp_1| :named |aprp1|))
(assert (! |def_aprp_2| :named |aprp2|))
(assert (! |def_aprp_3| :named |aprp3|))
(assert (! |def_aprp_4| :named |aprp4|))
(assert (! |def_aprp_5| :named |aprp5|))
(assert (! |def_aprp_6| :named |aprp6|))
(assert (! |def_aprp_7| :named |aprp7|))
(assert (! |def_aprp_8| :named |aprp8|))
(assert (! |def_aprp_9| :named |aprp9|))
(assert (! |def_aprp_10| :named |aprp10|))
(assert (! |def_aprp_11| :named |aprp11|))
(assert (! |def_aprp_12| :named |aprp12|))
(assert (! |def_aprp_13| :named |aprp13|))
(assert (! |def_aprp_14| :named |aprp14|))
(assert (! |def_aprp_15| :named |aprp15|))
(assert (! |def_aprp_16| :named |aprp16|))
(assert (! |def_aprp_17| :named |aprp17|))
(assert (! |def_aprp_18| :named |aprp18|))
(assert (! |def_aprp_19| :named |aprp19|))
(assert (! |def_aprp_20| :named |aprp20|))
(assert (! |def_aprp_21| :named |aprp21|))
(assert (! |def_aprp_22| :named |aprp22|))
(assert (! |def_aprp_23| :named |aprp23|))
(assert (! |def_aprp_24| :named |aprp24|))
(assert (! |def_aprp_25| :named |aprp25|))
(assert (! |def_aprp_26| :named |aprp26|))
(assert (! |def_aprp_27| :named |aprp27|))
(assert (! |def_aprp_28| :named |aprp28|))
(assert (! |def_lprp_0| :named |lprp0|))
(assert (! |def_lprp_1| :named |lprp1|))
(assert (! |def_lprp_2| :named |lprp2|))
(assert (! |def_lprp_3| :named |lprp3|))
(assert (! |def_lprp_4| :named |lprp4|))
(assert (! |def_lprp_5| :named |lprp5|))
(assert (! |def_lprp_6| :named |lprp6|))
(assert (! |def_lprp_7| :named |lprp7|))
(assert (! |def_lprp_8| :named |lprp8|))
(assert (! |def_lprp_9| :named |lprp9|))
(assert (! |def_lprp_10| :named |lprp10|))
(assert (! |def_lprp_11| :named |lprp11|))
(assert (! |def_lprp_12| :named |lprp12|))
(assert (! |def_lprp_13| :named |lprp13|))
(assert (! |def_lprp_14| :named |lprp14|))
(assert (! |def_lprp_15| :named |lprp15|))
(assert (! |def_abs_0| :named |abs0|))
(assert (! |def_abs_1| :named |abs1|))
(assert (! |def_abs_2| :named |abs2|))
(assert (! |def_abs_3| :named |abs3|))
(assert (! |def_abs_4| :named |abs4|))
(assert (! |def_abs_5| :named |abs5|))
(assert (! |def_abs_6| :named |abs6|))
(assert (! |def_abs_7| :named |abs7|))
(assert (! |def_abs_8| :named |abs8|))
(assert (! |def_abs_9| :named |abs9|))
(assert (! |def_abs_10| :named |abs10|))
(assert (! |def_abs_11| :named |abs11|))
(assert (! |def_abs_12| :named |abs12|))
(assert (! |def_abs_13| :named |abs13|))
(assert (! |def_abs_14| :named |abs14|))
(assert (! |def_abs_15| :named |abs15|))
(assert (! |def_abs_16| :named |abs16|))
(assert (! |def_abs_17| :named |abs17|))
(assert (! |def_abs_18| :named |abs18|))
(assert (! |def_abs_19| :named |abs19|))
(assert (! |def_abs_20| :named |abs20|))
(assert (! |def_abs_21| :named |abs21|))
(assert (! |def_abs_22| :named |abs22|))
(assert (! |def_abs_23| :named |abs23|))
(assert (! |def_inv_0| :named |inv0|))
(assert (! |def_inv_1| :named |inv1|))
(assert (! |def_inv_2| :named |inv2|))
(assert (! |def_inv_3| :named |inv3|))
(assert (! |def_inv_4| :named |inv4|))
(assert (! |def_inv_5| :named |inv5|))
(assert (! |def_inv_6| :named |inv6|))
(assert (! |def_inv_7| :named |inv7|))
(assert (! |def_inv_8| :named |inv8|))
(assert (! |def_inv_9| :named |inv9|))
(assert (! |def_inv_10| :named |inv10|))
(assert (! |def_inv_11| :named |inv11|))
(assert (! |def_inv_12| :named |inv12|))
(assert (! |def_inv_13| :named |inv13|))
(assert (! |def_inv_14| :named |inv14|))
(assert (! |def_inv_15| :named |inv15|))
(assert (! |def_inv_16| :named |inv16|))
(assert (! |def_inv_17| :named |inv17|))
(assert (! |def_inv_18| :named |inv18|))
(assert (! |def_inv_19| :named |inv19|))
(assert (! |def_inv_20| :named |inv20|))
(assert (! |def_inv_21| :named |inv21|))
(assert (! |def_inv_22| :named |inv22|))
(assert (! |def_inv_23| :named |inv23|))
(assert (! |def_ass_0| :named |ass0|))
(assert (! |def_ass_1| :named |ass1|))
(define-fun lh_1 () Bool (= g_s30$1_29 false))
(define-fun lh_2 () Bool true)
; PO 0 in group s51
(assert (! (not (=> (and lh_1 lh_2) (exists ( (l_s45 Real) ) (and  (or  (= l_s45 0.0) (and  (or  (= l_s45 (+ g_s31$1_42 (* (* (- g_s32$1_43 g_s26$1_26) (to_real g_s9_9)) g_s3_4))) (= l_s45 (/ 100.0 g_s2_2))) (forall ( (x_16 Real) ) (=> (or  (= x_16 (+ g_s31$1_42 (* (* (- g_s32$1_43 g_s26$1_26) (to_real g_s9_9)) g_s3_4))) (= x_16 (/ 100.0 g_s2_2))) (<= l_s45 x_16))))) (forall ( (l_s46 Real) ) (=> (or  (= l_s46 0.0) (and  (or  (= l_s46 (+ g_s31$1_42 (* (* (- g_s32$1_43 g_s26$1_26) (to_real g_s9_9)) g_s3_4))) (= l_s46 (/ 100.0 g_s2_2))) (forall ( (x_17 Real) ) (=> (or  (= x_17 (+ g_s31$1_42 (* (* (- g_s32$1_43 g_s26$1_26) (to_real g_s9_9)) g_s3_4))) (= x_17 (/ 100.0 g_s2_2))) (<= l_s46 x_17))))) (>= l_s45 l_s46))))))) :named goal))
(check-sat)
(exit)
